NAME : portcgen-15-40
COMMENT : portcgen N=15, seed=40
TYPE : TSP
DIMENSION : 15
EDGE_WEIGHT_TYPE : EUC_2D
NODE_COORD_SECTION
1 72 98
2 73 119
3 73 92
4 92 82
5 91 105
6 90 83
7 79 103
8 54 90
9 99 114
10 93 82
11 52 83
12 97 101
13 100 96
14 81 90
15 53 74
